c 1 A1
c 2 C2
c 3 C3
c 4 C5
c 5 A6
c 6 C8
c 7 C9
c 8 C10
c 9 C11
c 10 C12
c 11 C13
c 12 A7
c 13 C14
c 14 C15
c 15 C16
c 16 C17
c 17 C18
c 18 A4
c 19 C19
c 20 C20
c 21 C21
c 22 C23
c 23 C24
c 24 A22
c 25 C25
c 26 C26
p cnf 26 39
1 0
1 -2 0
1 -3 0
1 -18 0
1 -4 0
1 -5 0
2 3 18 4 5 -1 0
5 -12 0
5 -6 0
5 -7 0
5 -8 0
5 -9 0
5 -10 0
5 -11 0
6 -5 0
7 -5 0
8 -5 0
11 -5 0
12 -13 0
12 -14 0
12 -15 0
12 -16 0
12 -17 0
18 -19 0
18 -20 0
18 -21 0
18 -24 0
18 -22 0
18 -23 0
19 -18 0
20 -18 0
21 -18 0
24 -18 0
23 -18 0
24 -25 0
24 -26 0
-12 13 -25 0
-12 -9 13 0
-8 -17 0